(set-info :smt-lib-version 2.6)
(set-logic QF_S)
(set-info :source |
Generated by: Murphy Berzish, Mitja Kulczynski, Federico Mora, Florin Manea, Joel Day, Dirk Nowotka, Vijay Ganesh, Zhengyang Lu
Generated on: 2020-10-01
Description: Translated from a collection of real-world regex queries, AutomataArk, collected by Loris D’Antoni and Fang Wang: https://github.com/lorisdanto/automatark
Application: Evaluate solvers on real-world regex queries
Target solver: Z3str3RE, CVC4, OSTRICH, Z3seq, Z3str3, Z3-Trau
Publications: Berzish, M., Kulczynski, M., Mora, F., Manea, F., Day, J. D., Nowotka, D., & Ganesh, V. (2021, July). An SMT solver for regular expressions and linear arithmetic over string length. In CAV 2021.
|)
(set-info :license "https://creativecommons.org/licenses/by/4.0/")
(set-info :category "industrial")
(set-info :status unsat)

(declare-const X String)
(assert (str.in_re X (re.++ (re.range "A" "Z") (re.+ (re.range "a" "z")) (str.to_re "\u{a}o") (re.union (str.to_re "i") (str.to_re "u")) (re.union (str.to_re "n") (re.++ (re.opt (str.to_re "v")) (str.to_re "r") (re.opt (str.to_re "t"))) (str.to_re "s") (str.to_re "t") (str.to_re "x")) (re.opt (re.++ (str.to_re "e") (re.opt (str.to_re "s")))))))
(assert (str.in_re X (re.++ (str.to_re "}{Trojan:") (re.+ (re.union (re.range "0" "9") (re.range "A" "Z") (re.range "a" "z") (str.to_re "_"))) (str.to_re "Host:") (re.union (str.to_re " ") (str.to_re "\u{9}") (str.to_re "\u{a}") (str.to_re "\u{c}") (str.to_re "\u{d}")) (re.range "0" "9") (str.to_re ".l\u{a}"))))
(assert (str.in_re X (re.++ (str.to_re "username=") (re.* re.allchar) (str.to_re "&password=") (re.* re.allchar) (str.to_re "\u{a}"))))
(assert (not (str.in_re X (re.++ (str.to_re "bind") (re.+ (re.union (re.range "0" "9") (re.range "A" "Z") (re.range "a" "z") (str.to_re "_"))) (str.to_re "Owner:") (re.range "0" "9") (str.to_re "BetaWordixqshv/qzccs\u{a}")))))
(assert (str.in_re X (re.union (re.++ ((_ re.loop 3 3) (str.to_re "0")) (re.* (str.to_re "0"))) (re.++ ((_ re.loop 3 3) (str.to_re "1")) (re.* (str.to_re "1"))) (re.++ ((_ re.loop 3 3) (str.to_re "2")) (re.* (str.to_re "2"))) (re.++ ((_ re.loop 3 3) (str.to_re "3")) (re.* (str.to_re "3"))) (re.++ ((_ re.loop 3 3) (str.to_re "4")) (re.* (str.to_re "4"))) (re.++ ((_ re.loop 3 3) (str.to_re "5")) (re.* (str.to_re "5"))) (re.++ ((_ re.loop 3 3) (str.to_re "6")) (re.* (str.to_re "6"))) (re.++ ((_ re.loop 3 3) (str.to_re "7")) (re.* (str.to_re "7"))) (re.++ ((_ re.loop 3 3) (str.to_re "8")) (re.* (str.to_re "8"))) (re.++ (str.to_re "\u{a}") ((_ re.loop 3 3) (str.to_re "9")) (re.* (str.to_re "9"))))))
(check-sat)

(exit)
